56196
18, 4, 30, 47, 54, 34, 53, 26, 55, 28, 6, 3, 13, 51, 37, 5, 35, 41, 32, 44, 8, 38, 24, 50, 20, 7, 40, 43, 49, 19, 48, 17, 23, 21, 29, 22, 10, 9, 14, 2, 45, 11, 31, 25, 52, 15, 16, 39, 46, 36, 1, 27, 33, 42, 12
